z1,z2,z3,nondominated
10,7,1,0
8,4,1,0
3,7,2,0
2,5,6,0
5,10,5,0
3,7,10,0
3,8,4,0
5,9,2,0
6,2,2,0
5,1,2,0
2,4,2,0
5,4,8,0
8,10,8,0
10,8,3,0
10,4,7,0
5,7,2,0
3,9,7,0
9,6,8,0
9,6,6,0
7,4,10,0
4,7,10,0
8,1,10,0
7,3,7,0
7,10,9,0
3,1,2,0
6,8,9,0
5,6,3,0
4,9,9,0
9,2,7,0
8,3,3,0
7,6,3,0
1,1,4,0
5,6,8,0
7,1,3,0
4,2,6,0
3,5,8,0
1,1,1,0
1,1,1,0
1,1,1,0
1,1,1,0
1,1,1,0
1,1,1,0
